NAME	SimCCS
ROWS
	L	A87
	L	B20
	G	A88
	L	B21
	L	A89
	L	B22
	L	B23
	L	B24
	L	A1
	G	A2
	L	A3
	G	A4
	L	A5
	G	A6
	L	A7
	G	A8
	L	A9
	G	A90
	L	A91
	G	A92
	L	A93
	G	A94
	L	A95
	G	A96
	G	A10
	L	A11
	G	A12
	L	A13
	G	A14
	L	A15
	G	A16
	L	A17
	G	A18
	L	A19
	L	B1
	L	B2
	L	B3
	L	B4
	L	B5
	L	B6
	L	B7
	L	B8
	L	B9
	G	A20
	L	A21
	G	A22
	L	A23
	G	A24
	L	A25
	G	A26
	L	A27
	G	A28
	L	A29
	E	C1
	E	C2
	E	C3
	E	C4
	E	C5
	E	C6
	E	C7
	E	C8
	E	C9
	G	A30
	L	A31
	G	A32
	L	A33
	G	A34
	L	A35
	G	A36
	L	A37
	G	A38
	L	A39
	G	D1
	G	D2
	G	A40
	L	A41
	G	A42
	L	A43
	G	A44
	L	A45
	G	A46
	L	A47
	G	A48
	L	A49
	G	E1
	G	E2
	G	A50
	L	A51
	G	A52
	L	A53
	G	A54
	L	A55
	G	A56
	L	A57
	E	C10
	G	A58
	L	A59
	G	F1
	G	F2
	G	A60
	L	A61
	G	A62
	L	A63
	G	A64
	L	A65
	G	A66
	L	A67
	G	A68
	L	A69
	E	G1
	N	OBJ
	G	A70
	L	A71
	G	A72
	L	A73
	G	A74
	L	A75
	G	A76
	L	A77
	L	B10
	G	A78
	L	B11
	L	A79
	L	B12
	L	B13
	L	B14
	L	B15
	L	B16
	L	B17
	L	B18
	E	H1
	L	B19
	E	H2
	E	H3
	G	A80
	L	A81
	G	A82
	L	A83
	G	A84
	L	A85
	G	A86
COLUMNS
	MARK0000	'MARKER'	'INTORG'
	y[6][0]	B7	1.0
	y[6][0]	A25	-9.04463
	y[6][0]	OBJ	13.23368
	r[1]	OBJ	6.3063
	r[1]	F2	16.6
	y[17][1]	A71	-7.911
	y[17][1]	OBJ	6.37591
	y[17][1]	B18	1.0
	y[9][1]	OBJ	0.11628
	y[9][1]	A39	-7.911
	y[9][1]	B10	1.0
	y[15][0]	OBJ	1.39684
	y[15][0]	B16	1.0
	y[15][0]	A61	-9.04463
	y[7][0]	A29	-9.04463
	y[7][0]	OBJ	13.23368
	y[7][0]	B8	1.0
	y[22][0]	B23	1.0
	y[22][0]	A89	-9.04463
	y[22][0]	OBJ	0.06863
	y[5][0]	OBJ	9.94145
	y[5][0]	B6	1.0
	y[5][0]	A21	-9.04463
	y[7][1]	B8	1.0
	y[7][1]	OBJ	23.6078
	y[7][1]	A31	-7.911
	y[16][1]	B17	1.0
	y[16][1]	OBJ	6.37591
	y[16][1]	A67	-7.911
	y[8][0]	B9	1.0
	y[8][0]	A33	-9.04463
	y[8][0]	OBJ	0.06518
	y[14][0]	B15	1.0
	y[14][0]	OBJ	1.39684
	y[14][0]	A57	-9.04463
	y[4][0]	OBJ	9.94145
	y[4][0]	A17	-9.04463
	y[4][0]	B5	1.0
	y[23][0]	B24	1.0
	y[23][0]	A93	-9.04463
	y[23][0]	OBJ	0.06863
	y[1][1]	B2	1.0
	y[1][1]	A7	-7.911
	y[1][1]	OBJ	0.58985
	y[12][0]	A49	-9.04463
	y[12][0]	B13	1.0
	y[12][0]	OBJ	1.6472
	s[1]	OBJ	351.85
	s[1]	D2	3.276
	r[0]	F1	12.0
	r[0]	OBJ	6.3063
	y[19][1]	OBJ	0.08624
	y[19][1]	B20	1.0
	y[19][1]	A79	-7.911
	w[1]	OBJ	0.5412
	w[1]	E2	0.5
	y[3][0]	OBJ	6.58792
	y[3][0]	A13	-9.04463
	y[3][0]	B4	1.0
	y[9][0]	A37	-9.04463
	y[9][0]	OBJ	0.06518
	y[9][0]	B10	1.0
	y[11][0]	A45	-9.04463
	y[11][0]	OBJ	4.27295
	y[11][0]	B12	1.0
	y[22][1]	A91	-7.911
	y[22][1]	OBJ	0.12244
	y[22][1]	B23	1.0
	y[18][1]	OBJ	0.08624
	y[18][1]	A75	-7.911
	y[18][1]	B19	1.0
	y[13][0]	B14	1.0
	y[13][0]	A53	-9.04463
	y[13][0]	OBJ	1.6472
	y[0][1]	OBJ	0.58985
	y[0][1]	B1	1.0
	y[0][1]	A3	-7.911
	y[10][1]	B11	1.0
	y[10][1]	OBJ	7.6226
	y[10][1]	A43	-7.911
	y[8][1]	A35	-7.911
	y[8][1]	OBJ	0.11628
	y[8][1]	B9	1.0
	y[2][0]	OBJ	6.58792
	y[2][0]	A9	-9.04463
	y[2][0]	B3	1.0
	y[23][1]	B24	1.0
	y[23][1]	OBJ	0.12244
	y[23][1]	A95	-7.911
	s[0]	OBJ	402.85
	s[0]	D1	4.635
	y[1][0]	A5	-9.04463
	y[1][0]	B2	1.0
	y[1][0]	OBJ	0.33065
	y[12][1]	A51	-7.911
	y[12][1]	OBJ	2.93846
	y[12][1]	B13	1.0
	y[19][0]	B20	1.0
	y[19][0]	OBJ	0.04835
	y[19][0]	A77	-9.04463
	w[0]	OBJ	0.5869
	w[0]	E1	0.18
	y[11][1]	A47	-7.911
	y[11][1]	B12	1.0
	y[11][1]	OBJ	7.6226
	y[20][1]	B21	1.0
	y[20][1]	A83	-7.911
	y[20][1]	OBJ	23.16348
	y[3][1]	A15	-7.911
	y[3][1]	OBJ	11.75231
	y[3][1]	B4	1.0
	y[0][0]	B1	1.0
	y[0][0]	OBJ	0.33065
	y[0][0]	A1	-9.04463
	y[13][1]	A55	-7.911
	y[13][1]	B14	1.0
	y[13][1]	OBJ	2.93846
	y[18][0]	A73	-9.04463
	y[18][0]	OBJ	0.04835
	y[18][0]	B19	1.0
	y[2][1]	B3	1.0
	y[2][1]	A11	-7.911
	y[2][1]	OBJ	11.75231
	y[10][0]	OBJ	4.27295
	y[10][0]	B11	1.0
	y[10][0]	A41	-9.04463
	y[21][1]	OBJ	23.16348
	y[21][1]	A87	-7.911
	y[21][1]	B22	1.0
	y[6][1]	B7	1.0
	y[6][1]	OBJ	23.6078
	y[6][1]	A27	-7.911
	y[14][1]	OBJ	2.49184
	y[14][1]	B15	1.0
	y[14][1]	A59	-7.911
	y[17][0]	OBJ	3.5741
	y[17][0]	A69	-9.04463
	y[17][0]	B18	1.0
	y[15][1]	A63	-7.911
	y[15][1]	B16	1.0
	y[15][1]	OBJ	2.49184
	y[5][1]	A23	-7.911
	y[5][1]	OBJ	17.73472
	y[5][1]	B6	1.0
	y[20][0]	OBJ	12.98462
	y[20][0]	A81	-9.04463
	y[20][0]	B21	1.0
	y[16][0]	B17	1.0
	y[16][0]	A65	-9.04463
	y[16][0]	OBJ	3.5741
	y[21][0]	A85	-9.04463
	y[21][0]	OBJ	12.98462
	y[21][0]	B22	1.0
	y[4][1]	B5	1.0
	y[4][1]	OBJ	17.73472
	y[4][1]	A19	-7.911
	MARK0001	'MARKER'	'INTEND'
	p[18][1]	A75	1.0
	p[18][1]	C3	1.0
	p[18][1]	A76	1.0
	p[18][1]	OBJ	0.00877
	p[18][1]	C5	-1.0
	projectLength	H3	1.0
	p[16][0]	A66	1.0
	p[16][0]	C5	1.0
	p[16][0]	A65	1.0
	p[16][0]	OBJ	0.95815
	p[16][0]	C10	-1.0
	b[0]	C10	1.0
	b[0]	F1	-1.0
	b[0]	E1	-1.0
	b[0]	OBJ	3.02
	p[5][1]	A23	1.0
	p[5][1]	A24	1.0
	p[5][1]	C10	1.0
	p[5][1]	C8	-1.0
	p[5][1]	OBJ	1.80348
	p[3][0]	C7	-1.0
	p[3][0]	OBJ	1.76611
	p[3][0]	C4	1.0
	p[3][0]	A14	1.0
	p[3][0]	A13	1.0
	p[1][0]	A5	1.0
	p[1][0]	A6	1.0
	p[1][0]	C4	1.0
	p[1][0]	C6	-1.0
	p[1][0]	OBJ	0.08864
	p[23][0]	OBJ	0.0184
	p[23][0]	A93	1.0
	p[23][0]	C6	1.0
	p[23][0]	C3	-1.0
	p[23][0]	A94	1.0
	p[17][1]	OBJ	0.64838
	p[17][1]	C5	-1.0
	p[17][1]	C10	1.0
	p[17][1]	A72	1.0
	p[17][1]	A71	1.0
	p[15][0]	C7	-1.0
	p[15][0]	A62	1.0
	p[15][0]	C8	1.0
	p[15][0]	A61	1.0
	p[15][0]	OBJ	0.37447
	p[4][1]	C8	1.0
	p[4][1]	OBJ	1.80348
	p[4][1]	A19	1.0
	p[4][1]	A20	1.0
	p[4][1]	C10	-1.0
	p[14][0]	A57	1.0
	p[14][0]	OBJ	0.37447
	p[14][0]	A58	1.0
	p[14][0]	C7	1.0
	p[14][0]	C8	-1.0
	p[2][0]	A10	1.0
	p[2][0]	C7	1.0
	p[2][0]	A9	1.0
	p[2][0]	C4	-1.0
	p[2][0]	OBJ	1.76611
	p[0][0]	A2	1.0
	p[0][0]	C4	-1.0
	p[0][0]	OBJ	0.08864
	p[0][0]	C6	1.0
	p[0][0]	A1	1.0
	p[7][1]	A31	1.0
	p[7][1]	C7	-1.0
	p[7][1]	C2	1.0
	p[7][1]	OBJ	2.40073
	p[7][1]	A32	1.0
	p[18][0]	OBJ	0.01296
	p[18][0]	C3	1.0
	p[18][0]	A74	1.0
	p[18][0]	A73	1.0
	p[18][0]	C5	-1.0
	p[16][1]	C10	-1.0
	p[16][1]	A68	1.0
	p[16][1]	C5	1.0
	p[16][1]	OBJ	0.64838
	p[16][1]	A67	1.0
	p[9][0]	C5	-1.0
	p[9][0]	A37	1.0
	p[9][0]	A38	1.0
	p[9][0]	C6	1.0
	p[9][0]	OBJ	0.01747
	p[20][1]	A83	1.0
	p[20][1]	A84	1.0
	p[20][1]	OBJ	2.35554
	p[20][1]	C2	-1.0
	p[20][1]	C3	1.0
	p[22][0]	OBJ	0.0184
	p[22][0]	A89	1.0
	p[22][0]	A90	1.0
	p[22][0]	C3	1.0
	p[22][0]	C6	-1.0
	p[6][1]	A27	1.0
	p[6][1]	C2	-1.0
	p[6][1]	C7	1.0
	p[6][1]	A28	1.0
	p[6][1]	OBJ	2.40073
	p[17][0]	C10	1.0
	p[17][0]	C5	-1.0
	p[17][0]	OBJ	0.95815
	p[17][0]	A69	1.0
	p[17][0]	A70	1.0
	p[15][1]	C8	1.0
	p[15][1]	A64	1.0
	p[15][1]	A63	1.0
	p[15][1]	OBJ	0.2534
	p[15][1]	C7	-1.0
	p[14][1]	C7	1.0
	p[14][1]	A59	1.0
	p[14][1]	A60	1.0
	p[14][1]	OBJ	0.2534
	p[14][1]	C8	-1.0
	p[8][0]	C6	-1.0
	p[8][0]	A33	1.0
	p[8][0]	C5	1.0
	p[8][0]	OBJ	0.01747
	p[8][0]	A34	1.0
	p[21][0]	C2	1.0
	p[21][0]	A86	1.0
	p[21][0]	C3	-1.0
	p[21][0]	OBJ	3.48095
	p[21][0]	A85	1.0
	p[11][0]	C2	-1.0
	p[11][0]	A45	1.0
	p[11][0]	A46	1.0
	p[11][0]	C1	1.0
	p[11][0]	OBJ	1.1455
	p[7][0]	C2	1.0
	p[7][0]	A30	1.0
	p[7][0]	C7	-1.0
	p[7][0]	A29	1.0
	p[7][0]	OBJ	3.54772
	p[13][1]	OBJ	0.29882
	p[13][1]	A55	1.0
	p[13][1]	C9	-1.0
	p[13][1]	C8	1.0
	p[13][1]	A56	1.0
	p[9][1]	OBJ	0.01182
	p[9][1]	A40	1.0
	p[9][1]	A39	1.0
	p[9][1]	C5	-1.0
	p[9][1]	C6	1.0
	p[20][0]	OBJ	3.48095
	p[20][0]	A81	1.0
	p[20][0]	C2	-1.0
	p[20][0]	A82	1.0
	p[20][0]	C3	1.0
	a[1]	G1	1.0
	a[1]	OBJ	94.74
	a[1]	C9	-1.0
	a[1]	D2	-1.0
	p[22][1]	C3	1.0
	p[22][1]	OBJ	0.01245
	p[22][1]	A92	1.0
	p[22][1]	A91	1.0
	p[22][1]	C6	-1.0
	p[6][0]	OBJ	3.54772
	p[6][0]	A25	1.0
	p[6][0]	A26	1.0
	p[6][0]	C2	-1.0
	p[6][0]	C7	1.0
	p[12][1]	C8	-1.0
	p[12][1]	A52	1.0
	p[12][1]	A51	1.0
	p[12][1]	C9	1.0
	p[12][1]	OBJ	0.29882
	p[8][1]	OBJ	0.01182
	p[8][1]	C6	-1.0
	p[8][1]	A36	1.0
	p[8][1]	A35	1.0
	p[8][1]	C5	1.0
	crf	H2	1.0
	p[19][0]	A77	1.0
	p[19][0]	A78	1.0
	p[19][0]	C5	1.0
	p[19][0]	C3	-1.0
	p[19][0]	OBJ	0.01296
	p[0][1]	A3	1.0
	p[0][1]	A4	1.0
	p[0][1]	OBJ	0.05998
	p[0][1]	C4	-1.0
	p[0][1]	C6	1.0
	p[10][0]	C2	1.0
	p[10][0]	OBJ	1.1455
	p[10][0]	C1	-1.0
	p[10][0]	A42	1.0
	p[10][0]	A41	1.0
	p[21][1]	A88	1.0
	p[21][1]	A87	1.0
	p[21][1]	OBJ	2.35554
	p[21][1]	C2	1.0
	p[21][1]	C3	-1.0
	captureTarget	H1	1.0
	p[11][1]	A48	1.0
	p[11][1]	C2	-1.0
	p[11][1]	OBJ	0.77516
	p[11][1]	C1	1.0
	p[11][1]	A47	1.0
	b[1]	E2	-1.0
	b[1]	F2	-1.0
	b[1]	C4	1.0
	b[1]	OBJ	2.84
	p[13][0]	C8	1.0
	p[13][0]	A53	1.0
	p[13][0]	A54	1.0
	p[13][0]	C9	-1.0
	p[13][0]	OBJ	0.44158
	a[0]	G1	1.0
	a[0]	OBJ	71.9
	a[0]	D1	-1.0
	a[0]	C1	-1.0
	p[5][0]	A22	1.0
	p[5][0]	C8	-1.0
	p[5][0]	OBJ	2.66513
	p[5][0]	C10	1.0
	p[5][0]	A21	1.0
	p[3][1]	A15	1.0
	p[3][1]	C4	1.0
	p[3][1]	C7	-1.0
	p[3][1]	A16	1.0
	p[3][1]	OBJ	1.19512
	p[1][1]	A7	1.0
	p[1][1]	C6	-1.0
	p[1][1]	A8	1.0
	p[1][1]	OBJ	0.05998
	p[1][1]	C4	1.0
	p[23][1]	C3	-1.0
	p[23][1]	OBJ	0.01245
	p[23][1]	A95	1.0
	p[23][1]	C6	1.0
	p[23][1]	A96	1.0
	p[12][0]	C9	1.0
	p[12][0]	A49	1.0
	p[12][0]	OBJ	0.44158
	p[12][0]	A50	1.0
	p[12][0]	C8	-1.0
	p[19][1]	OBJ	0.00877
	p[19][1]	C5	1.0
	p[19][1]	A80	1.0
	p[19][1]	A79	1.0
	p[19][1]	C3	-1.0
	p[10][1]	A44	1.0
	p[10][1]	OBJ	0.77516
	p[10][1]	A43	1.0
	p[10][1]	C2	1.0
	p[10][1]	C1	-1.0
	p[2][1]	C7	1.0
	p[2][1]	C4	-1.0
	p[2][1]	A12	1.0
	p[2][1]	A11	1.0
	p[2][1]	OBJ	1.19512
	p[4][0]	A17	1.0
	p[4][0]	C8	1.0
	p[4][0]	C10	-1.0
	p[4][0]	A18	1.0
	p[4][0]	OBJ	2.66513
RHS
	rhs	A43	0.0
	rhs	A87	0.0
	rhs	B20	1.0
	rhs	B21	1.0
	rhs	A45	0.0
	rhs	A89	0.0
	rhs	B22	1.0
	rhs	B23	1.0
	rhs	A47	0.0
	rhs	B24	1.0
	rhs	A49	0.0
	rhs	A1	0.0
	rhs	A3	0.0
	rhs	A5	0.0
	rhs	A7	0.0
	rhs	A9	0.0
	rhs	A91	0.0
	rhs	A93	0.0
	rhs	A51	0.0
	rhs	A95	0.0
	rhs	A53	0.0
	rhs	A11	0.0
	rhs	A55	0.0
	rhs	A13	0.0
	rhs	A57	0.0
	rhs	A15	0.0
	rhs	A59	0.0
	rhs	A17	0.0
	rhs	A19	0.0
	rhs	B1	1.0
	rhs	B2	1.0
	rhs	B3	1.0
	rhs	B4	1.0
	rhs	B5	1.0
	rhs	B6	1.0
	rhs	B7	1.0
	rhs	B8	1.0
	rhs	B9	1.0
	rhs	A61	0.0
	rhs	A63	0.0
	rhs	A21	0.0
	rhs	A65	0.0
	rhs	A23	0.0
	rhs	A67	0.0
	rhs	A25	0.0
	rhs	A69	0.0
	rhs	A27	0.0
	rhs	A29	0.0
	rhs	G1	6.0
	rhs	A71	0.0
	rhs	A73	0.0
	rhs	A31	0.0
	rhs	A75	0.0
	rhs	A33	0.0
	rhs	A77	0.0
	rhs	B10	1.0
	rhs	B11	1.0
	rhs	A35	0.0
	rhs	A79	0.0
	rhs	B12	1.0
	rhs	B13	1.0
	rhs	A37	0.0
	rhs	B14	1.0
	rhs	B15	1.0
	rhs	A39	0.0
	rhs	B16	1.0
	rhs	B17	1.0
	rhs	B18	1.0
	rhs	H1	6.0
	rhs	B19	1.0
	rhs	H2	0.1
	rhs	H3	30.0
	rhs	A81	0.0
	rhs	A83	0.0
	rhs	A41	0.0
	rhs	A85	0.0
BOUNDS
	UP bnd	r[1]	1.0
	UP bnd	y[6][0]	1.0
	UP bnd	y[17][1]	1.0
	UP bnd	y[9][1]	1.0
	UP bnd	y[15][0]	1.0
	UP bnd	y[7][0]	1.0
	UP bnd	y[22][0]	1.0
	UP bnd	y[5][0]	1.0
	UP bnd	y[7][1]	1.0
	UP bnd	y[16][1]	1.0
	UP bnd	y[8][0]	1.0
	UP bnd	y[14][0]	1.0
	UP bnd	y[4][0]	1.0
	UP bnd	y[23][0]	1.0
	UP bnd	y[1][1]	1.0
	UP bnd	y[12][0]	1.0
	UP bnd	s[1]	1.0
	UP bnd	r[0]	1.0
	UP bnd	y[19][1]	1.0
	LI bnd	w[1]	0.0
	UP bnd	y[3][0]	1.0
	UP bnd	y[9][0]	1.0
	UP bnd	y[11][0]	1.0
	UP bnd	y[22][1]	1.0
	UP bnd	y[18][1]	1.0
	UP bnd	y[13][0]	1.0
	UP bnd	y[0][1]	1.0
	UP bnd	y[10][1]	1.0
	UP bnd	y[8][1]	1.0
	UP bnd	y[2][0]	1.0
	UP bnd	y[23][1]	1.0
	UP bnd	s[0]	1.0
	UP bnd	y[1][0]	1.0
	UP bnd	y[12][1]	1.0
	UP bnd	y[19][0]	1.0
	LI bnd	w[0]	0.0
	UP bnd	y[11][1]	1.0
	UP bnd	y[20][1]	1.0
	UP bnd	y[3][1]	1.0
	UP bnd	y[0][0]	1.0
	UP bnd	y[13][1]	1.0
	UP bnd	y[18][0]	1.0
	UP bnd	y[2][1]	1.0
	UP bnd	y[10][0]	1.0
	UP bnd	y[21][1]	1.0
	UP bnd	y[6][1]	1.0
	UP bnd	y[14][1]	1.0
	UP bnd	y[17][0]	1.0
	UP bnd	y[15][1]	1.0
	UP bnd	y[5][1]	1.0
	UP bnd	y[20][0]	1.0
	UP bnd	y[16][0]	1.0
	UP bnd	y[21][0]	1.0
	UP bnd	y[4][1]	1.0
ENDATA